9787
6911
4603
8496
5656
2065
8334
7754
6818
2509
10075
6022
1868
589
7053
7176
1564
816
2438
9563
4482
5567
9851
7781
9015
9030
10132
3553
2174
1746
2351
3398
3610
3791
9890
4201
6964
6460
1747
5046
3197
595
4997
7955
456
8401
9948
9201
10003
2289
2808
